c CNF file corresponding to a (partial) station packing problem.
p cnf 1509 229
1 2 3 4 5 6 7 8 9 10 11 12 13 14 0
-1 -2 0
-1 -3 0
-1 -4 0
-1 -5 0
-1 -6 0
-1 -7 0
-1 -8 0
-1 -9 0
-1 -10 0
-1 -11 0
-1 -12 0
-1 -13 0
-1 -14 0
-2 -3 0
-2 -4 0
-2 -5 0
-2 -6 0
-2 -7 0
-2 -8 0
-2 -9 0
-2 -10 0
-2 -11 0
-2 -12 0
-2 -13 0
-2 -14 0
-3 -4 0
-3 -5 0
-3 -6 0
-3 -7 0
-3 -8 0
-3 -9 0
-3 -10 0
-3 -11 0
-3 -12 0
-3 -13 0
-3 -14 0
-4 -5 0
-4 -6 0
-4 -7 0
-4 -8 0
-4 -9 0
-4 -10 0
-4 -11 0
-4 -12 0
-4 -13 0
-4 -14 0
-5 -6 0
-5 -7 0
-5 -8 0
-5 -9 0
-5 -10 0
-5 -11 0
-5 -12 0
-5 -13 0
-5 -14 0
-6 -7 0
-6 -8 0
-6 -9 0
-6 -10 0
-6 -11 0
-6 -12 0
-6 -13 0
-6 -14 0
-7 -8 0
-7 -9 0
-7 -10 0
-7 -11 0
-7 -12 0
-7 -13 0
-7 -14 0
-8 -9 0
-8 -10 0
-8 -11 0
-8 -12 0
-8 -13 0
-8 -14 0
-9 -10 0
-9 -11 0
-9 -12 0
-9 -13 0
-9 -14 0
-10 -11 0
-10 -12 0
-10 -13 0
-10 -14 0
-11 -12 0
-11 -13 0
-11 -14 0
-12 -13 0
-12 -14 0
-13 -14 0
1493 1494 1495 1496 1497 1498 1499 1500 1501 1502 1503 1504 1505 1506 1507 1508 1509 0
-1493 -1494 0
-1493 -1495 0
-1493 -1496 0
-1493 -1497 0
-1493 -1498 0
-1493 -1499 0
-1493 -1500 0
-1493 -1501 0
-1493 -1502 0
-1493 -1503 0
-1493 -1504 0
-1493 -1505 0
-1493 -1506 0
-1493 -1507 0
-1493 -1508 0
-1493 -1509 0
-1494 -1495 0
-1494 -1496 0
-1494 -1497 0
-1494 -1498 0
-1494 -1499 0
-1494 -1500 0
-1494 -1501 0
-1494 -1502 0
-1494 -1503 0
-1494 -1504 0
-1494 -1505 0
-1494 -1506 0
-1494 -1507 0
-1494 -1508 0
-1494 -1509 0
-1495 -1496 0
-1495 -1497 0
-1495 -1498 0
-1495 -1499 0
-1495 -1500 0
-1495 -1501 0
-1495 -1502 0
-1495 -1503 0
-1495 -1504 0
-1495 -1505 0
-1495 -1506 0
-1495 -1507 0
-1495 -1508 0
-1495 -1509 0
-1496 -1497 0
-1496 -1498 0
-1496 -1499 0
-1496 -1500 0
-1496 -1501 0
-1496 -1502 0
-1496 -1503 0
-1496 -1504 0
-1496 -1505 0
-1496 -1506 0
-1496 -1507 0
-1496 -1508 0
-1496 -1509 0
-1497 -1498 0
-1497 -1499 0
-1497 -1500 0
-1497 -1501 0
-1497 -1502 0
-1497 -1503 0
-1497 -1504 0
-1497 -1505 0
-1497 -1506 0
-1497 -1507 0
-1497 -1508 0
-1497 -1509 0
-1498 -1499 0
-1498 -1500 0
-1498 -1501 0
-1498 -1502 0
-1498 -1503 0
-1498 -1504 0
-1498 -1505 0
-1498 -1506 0
-1498 -1507 0
-1498 -1508 0
-1498 -1509 0
-1499 -1500 0
-1499 -1501 0
-1499 -1502 0
-1499 -1503 0
-1499 -1504 0
-1499 -1505 0
-1499 -1506 0
-1499 -1507 0
-1499 -1508 0
-1499 -1509 0
-1500 -1501 0
-1500 -1502 0
-1500 -1503 0
-1500 -1504 0
-1500 -1505 0
-1500 -1506 0
-1500 -1507 0
-1500 -1508 0
-1500 -1509 0
-1501 -1502 0
-1501 -1503 0
-1501 -1504 0
-1501 -1505 0
-1501 -1506 0
-1501 -1507 0
-1501 -1508 0
-1501 -1509 0
-1502 -1503 0
-1502 -1504 0
-1502 -1505 0
-1502 -1506 0
-1502 -1507 0
-1502 -1508 0
-1502 -1509 0
-1503 -1504 0
-1503 -1505 0
-1503 -1506 0
-1503 -1507 0
-1503 -1508 0
-1503 -1509 0
-1504 -1505 0
-1504 -1506 0
-1504 -1507 0
-1504 -1508 0
-1504 -1509 0
-1505 -1506 0
-1505 -1507 0
-1505 -1508 0
-1505 -1509 0
-1506 -1507 0
-1506 -1508 0
-1506 -1509 0
-1507 -1508 0
-1507 -1509 0
-1508 -1509 0
